p cnf 241 1163
161 221 223 0
142 151 156 0
101 105 134 0
127 131 0
86 125 163 0
117 146 154 234 236 0
122 149 190 0
165 169 170 174 0
177 179 197 0
113 120 141 152 202 0
106 108 0
95 97 99 103 0
129 205 0
90 92 0
85 88 168 172 211 0
81 109 111 115 136 144 0
74 76 80 0
159 181 182 238 0
183 185 0
123 188 191 0
180 192 194 195 0
198 203 0
140 153 0
133 206 208 0
84 171 212 215 0
83 217 0
147 219 0
150 162 166 0
175 193 220 222 224 0
200 225 227 0
110 114 143 157 228 0
210 229 0
89 126 130 173 230 0
124 231 232 0
112 119 138 158 0
218 233 235 237 0
78 160 0
75 186 239 241 0
72 176 178 196 0
70 71 107 0
66 67 69 96 98 0
60 62 63 64 65 132 0
59 167 0
53 55 56 58 214 0
52 82 135 0
-105 -156 0
-50 -156 0
-49 -156 0
-50 -105 0
-49 -105 0
-49 -50 0
-57 -168 0
-144 -168 0
-47 -168 0
-57 -144 0
-47 -57 0
-47 -144 0
-91 -206 0
-171 -206 0
-45 -206 0
-91 -171 0
-45 -91 0
-45 -171 0
-69 -94 0
-69 -132 0
-52 -69 0
-94 -132 0
-52 -94 0
-52 -132 0
-156 -168 0
-156 -206 0
-69 -156 0
-168 -206 0
-69 -168 0
-69 -206 0
-57 -105 0
-91 -105 0
-94 -105 0
-57 -91 0
-57 -94 0
-91 -94 0
-50 -144 0
-50 -171 0
-50 -132 0
-144 -171 0
-132 -144 0
-132 -171 0
-47 -49 0
-45 -49 0
-49 -52 0
-45 -47 0
-47 -52 0
-45 -52 0
-151 -161 0
-101 -161 0
-161 -209 0
-131 -161 0
-125 -161 0
-101 -151 0
-151 -209 0
-131 -151 0
-125 -151 0
-101 -209 0
-101 -131 0
-101 -125 0
-131 -209 0
-125 -209 0
-125 -131 0
-117 -184 0
-117 -190 0
-117 -165 0
-117 -179 0
-117 -202 0
-184 -190 0
-165 -184 0
-179 -184 0
-184 -202 0
-165 -190 0
-179 -190 0
-190 -202 0
-165 -179 0
-165 -202 0
-179 -202 0
-88 -103 0
-103 -213 0
-103 -136 0
-103 -216 0
-80 -103 0
-88 -213 0
-88 -136 0
-88 -216 0
-80 -88 0
-136 -213 0
-213 -216 0
-80 -213 0
-136 -216 0
-80 -136 0
-80 -216 0
-140 -208 0
-61 -140 0
-84 -140 0
-54 -140 0
-83 -140 0
-61 -208 0
-84 -208 0
-54 -208 0
-83 -208 0
-61 -84 0
-54 -61 0
-61 -83 0
-54 -84 0
-83 -84 0
-54 -83 0
-43 -220 0
-43 -225 0
-43 -114 0
-43 -155 0
-43 -104 0
-220 -225 0
-114 -220 0
-155 -220 0
-104 -220 0
-114 -225 0
-155 -225 0
-104 -225 0
-114 -155 0
-104 -114 0
-104 -155 0
-67 -196 0
-42 -196 0
-65 -196 0
-167 -196 0
-58 -196 0
-42 -67 0
-65 -67 0
-67 -167 0
-58 -67 0
-42 -65 0
-42 -167 0
-42 -58 0
-65 -167 0
-58 -65 0
-58 -167 0
-117 -161 0
-103 -161 0
-140 -161 0
-43 -161 0
-161 -196 0
-103 -117 0
-117 -140 0
-43 -117 0
-117 -196 0
-103 -140 0
-43 -103 0
-103 -196 0
-43 -140 0
-140 -196 0
-43 -196 0
-151 -184 0
-88 -151 0
-151 -208 0
-151 -220 0
-67 -151 0
-88 -184 0
-184 -208 0
-184 -220 0
-67 -184 0
-88 -208 0
-88 -220 0
-67 -88 0
-208 -220 0
-67 -208 0
-67 -220 0
-101 -190 0
-101 -213 0
-61 -101 0
-101 -225 0
-42 -101 0
-190 -213 0
-61 -190 0
-190 -225 0
-42 -190 0
-61 -213 0
-213 -225 0
-42 -213 0
-61 -225 0
-42 -61 0
-42 -225 0
-165 -209 0
-136 -209 0
-84 -209 0
-114 -209 0
-65 -209 0
-136 -165 0
-84 -165 0
-114 -165 0
-65 -165 0
-84 -136 0
-114 -136 0
-65 -136 0
-84 -114 0
-65 -84 0
-65 -114 0
-131 -179 0
-131 -216 0
-54 -131 0
-131 -155 0
-131 -167 0
-179 -216 0
-54 -179 0
-155 -179 0
-167 -179 0
-54 -216 0
-155 -216 0
-167 -216 0
-54 -155 0
-54 -167 0
-155 -167 0
-125 -202 0
-80 -125 0
-83 -125 0
-104 -125 0
-58 -125 0
-80 -202 0
-83 -202 0
-104 -202 0
-58 -202 0
-80 -83 0
-80 -104 0
-58 -80 0
-83 -104 0
-58 -83 0
-58 -104 0
-221 -226 0
-41 -221 0
-86 -221 0
-40 -221 0
-41 -226 0
-86 -226 0
-40 -226 0
-41 -86 0
-40 -41 0
-40 -86 0
-99 -129 0
-99 -115 0
-76 -99 0
-38 -99 0
-115 -129 0
-76 -129 0
-38 -129 0
-76 -115 0
-38 -115 0
-38 -76 0
-37 -219 0
-37 -110 0
-37 -100 0
-37 -210 0
-110 -219 0
-100 -219 0
-210 -219 0
-100 -110 0
-110 -210 0
-100 -210 0
-124 -130 0
-75 -130 0
-130 -189 0
-130 -164 0
-75 -124 0
-124 -189 0
-124 -164 0
-75 -189 0
-75 -164 0
-164 -189 0
-178 -201 0
-64 -178 0
-178 -214 0
-135 -178 0
-64 -201 0
-201 -214 0
-135 -201 0
-64 -214 0
-64 -135 0
-135 -214 0
-99 -221 0
-37 -221 0
-130 -221 0
-178 -221 0
-37 -99 0
-99 -130 0
-99 -178 0
-37 -130 0
-37 -178 0
-130 -178 0
-129 -226 0
-219 -226 0
-124 -226 0
-201 -226 0
-129 -219 0
-124 -129 0
-129 -201 0
-124 -219 0
-201 -219 0
-124 -201 0
-41 -115 0
-41 -110 0
-41 -75 0
-41 -64 0
-110 -115 0
-75 -115 0
-64 -115 0
-75 -110 0
-64 -110 0
-64 -75 0
-76 -86 0
-86 -100 0
-86 -189 0
-86 -214 0
-76 -100 0
-76 -189 0
-76 -214 0
-100 -189 0
-100 -214 0
-189 -214 0
-38 -40 0
-40 -210 0
-40 -164 0
-40 -135 0
-38 -210 0
-38 -164 0
-38 -135 0
-164 -210 0
-135 -210 0
-135 -164 0
-36 -85 0
-85 -111 0
-36 -111 0
-222 -227 0
-222 -228 0
-227 -228 0
-98 -128 0
-63 -98 0
-63 -128 0
-85 -222 0
-85 -98 0
-98 -222 0
-36 -227 0
-36 -128 0
-128 -227 0
-111 -228 0
-63 -111 0
-63 -228 0
-199 -223 0
-35 -223 0
-142 -223 0
-34 -223 0
-127 -223 0
-118 -223 0
-35 -199 0
-142 -199 0
-34 -199 0
-127 -199 0
-118 -199 0
-35 -142 0
-34 -35 0
-35 -127 0
-35 -118 0
-34 -142 0
-127 -142 0
-118 -142 0
-34 -127 0
-34 -118 0
-118 -127 0
-77 -234 0
-33 -234 0
-32 -234 0
-169 -234 0
-177 -234 0
-108 -234 0
-33 -77 0
-32 -77 0
-77 -169 0
-77 -177 0
-77 -108 0
-32 -33 0
-33 -169 0
-33 -177 0
-33 -108 0
-32 -169 0
-32 -177 0
-32 -108 0
-169 -177 0
-108 -169 0
-108 -177 0
-97 -205 0
-92 -97 0
-97 -172 0
-97 -109 0
-44 -97 0
-31 -97 0
-92 -205 0
-172 -205 0
-109 -205 0
-44 -205 0
-31 -205 0
-92 -172 0
-92 -109 0
-44 -92 0
-31 -92 0
-109 -172 0
-44 -172 0
-31 -172 0
-44 -109 0
-31 -109 0
-31 -44 0
-29 -30 0
-30 -145 0
-30 -159 0
-30 -188 0
-28 -30 0
-30 -198 0
-29 -145 0
-29 -159 0
-29 -188 0
-28 -29 0
-29 -198 0
-145 -159 0
-145 -188 0
-28 -145 0
-145 -198 0
-159 -188 0
-28 -159 0
-159 -198 0
-28 -188 0
-188 -198 0
-28 -198 0
-68 -153 0
-93 -153 0
-133 -153 0
-153 -212 0
-51 -153 0
-27 -153 0
-68 -93 0
-68 -133 0
-68 -212 0
-51 -68 0
-27 -68 0
-93 -133 0
-93 -212 0
-51 -93 0
-27 -93 0
-133 -212 0
-51 -133 0
-27 -133 0
-51 -212 0
-27 -212 0
-27 -51 0
-73 -147 0
-73 -166 0
-73 -175 0
-73 -157 0
-25 -73 0
-73 -229 0
-147 -166 0
-147 -175 0
-147 -157 0
-25 -147 0
-147 -229 0
-166 -175 0
-157 -166 0
-25 -166 0
-166 -229 0
-157 -175 0
-25 -175 0
-175 -229 0
-25 -157 0
-157 -229 0
-25 -229 0
-89 -231 0
-89 -138 0
-89 -233 0
-89 -239 0
-24 -89 0
-23 -89 0
-138 -231 0
-231 -233 0
-231 -239 0
-24 -231 0
-23 -231 0
-138 -233 0
-138 -239 0
-24 -138 0
-23 -138 0
-233 -239 0
-24 -233 0
-23 -233 0
-24 -239 0
-23 -239 0
-23 -24 0
-223 -234 0
-97 -223 0
-30 -223 0
-153 -223 0
-73 -223 0
-89 -223 0
-97 -234 0
-30 -234 0
-153 -234 0
-73 -234 0
-89 -234 0
-30 -97 0
-97 -153 0
-73 -97 0
-89 -97 0
-30 -153 0
-30 -73 0
-30 -89 0
-73 -153 0
-89 -153 0
-73 -89 0
-77 -199 0
-199 -205 0
-29 -199 0
-68 -199 0
-147 -199 0
-199 -231 0
-77 -205 0
-29 -77 0
-68 -77 0
-77 -147 0
-77 -231 0
-29 -205 0
-68 -205 0
-147 -205 0
-205 -231 0
-29 -68 0
-29 -147 0
-29 -231 0
-68 -147 0
-68 -231 0
-147 -231 0
-33 -35 0
-35 -92 0
-35 -145 0
-35 -93 0
-35 -166 0
-35 -138 0
-33 -92 0
-33 -145 0
-33 -93 0
-33 -166 0
-33 -138 0
-92 -145 0
-92 -93 0
-92 -166 0
-92 -138 0
-93 -145 0
-145 -166 0
-138 -145 0
-93 -166 0
-93 -138 0
-138 -166 0
-32 -142 0
-142 -172 0
-142 -159 0
-133 -142 0
-142 -175 0
-142 -233 0
-32 -172 0
-32 -159 0
-32 -133 0
-32 -175 0
-32 -233 0
-159 -172 0
-133 -172 0
-172 -175 0
-172 -233 0
-133 -159 0
-159 -175 0
-159 -233 0
-133 -175 0
-133 -233 0
-175 -233 0
-34 -169 0
-34 -109 0
-34 -188 0
-34 -212 0
-34 -157 0
-34 -239 0
-109 -169 0
-169 -188 0
-169 -212 0
-157 -169 0
-169 -239 0
-109 -188 0
-109 -212 0
-109 -157 0
-109 -239 0
-188 -212 0
-157 -188 0
-188 -239 0
-157 -212 0
-212 -239 0
-157 -239 0
-127 -177 0
-44 -127 0
-28 -127 0
-51 -127 0
-25 -127 0
-24 -127 0
-44 -177 0
-28 -177 0
-51 -177 0
-25 -177 0
-24 -177 0
-28 -44 0
-44 -51 0
-25 -44 0
-24 -44 0
-28 -51 0
-25 -28 0
-24 -28 0
-25 -51 0
-24 -51 0
-24 -25 0
-108 -118 0
-31 -118 0
-118 -198 0
-27 -118 0
-118 -229 0
-23 -118 0
-31 -108 0
-108 -198 0
-27 -108 0
-108 -229 0
-23 -108 0
-31 -198 0
-27 -31 0
-31 -229 0
-23 -31 0
-27 -198 0
-198 -229 0
-23 -198 0
-27 -229 0
-23 -27 0
-23 -229 0
-154 -240 0
-21 -154 0
-149 -154 0
-141 -154 0
-21 -240 0
-149 -240 0
-141 -240 0
-21 -149 0
-21 -141 0
-141 -149 0
-20 -48 0
-48 -181 0
-48 -183 0
-48 -195 0
-20 -181 0
-20 -183 0
-20 -195 0
-181 -183 0
-181 -195 0
-183 -195 0
-46 -162 0
-46 -224 0
-46 -200 0
-19 -46 0
-162 -224 0
-162 -200 0
-19 -162 0
-200 -224 0
-19 -224 0
-19 -200 0
-119 -126 0
-126 -235 0
-78 -126 0
-18 -126 0
-119 -235 0
-78 -119 0
-18 -119 0
-78 -235 0
-18 -235 0
-18 -78 0
-107 -176 0
-96 -176 0
-176 -204 0
-56 -176 0
-96 -107 0
-107 -204 0
-56 -107 0
-96 -204 0
-56 -96 0
-56 -204 0
-48 -154 0
-46 -154 0
-126 -154 0
-154 -176 0
-46 -48 0
-48 -126 0
-48 -176 0
-46 -126 0
-46 -176 0
-126 -176 0
-20 -240 0
-162 -240 0
-119 -240 0
-107 -240 0
-20 -162 0
-20 -119 0
-20 -107 0
-119 -162 0
-107 -162 0
-107 -119 0
-21 -181 0
-21 -224 0
-21 -235 0
-21 -96 0
-181 -224 0
-181 -235 0
-96 -181 0
-224 -235 0
-96 -224 0
-96 -235 0
-149 -183 0
-149 -200 0
-78 -149 0
-149 -204 0
-183 -200 0
-78 -183 0
-183 -204 0
-78 -200 0
-200 -204 0
-78 -204 0
-141 -195 0
-19 -141 0
-18 -141 0
-56 -141 0
-19 -195 0
-18 -195 0
-56 -195 0
-18 -19 0
-19 -56 0
-18 -56 0
-16 -17 0
-17 -134 0
-15 -17 0
-17 -163 0
-14 -17 0
-16 -134 0
-15 -16 0
-16 -163 0
-14 -16 0
-15 -134 0
-134 -163 0
-14 -134 0
-15 -163 0
-14 -15 0
-14 -163 0
-12 -13 0
-13 -122 0
-13 -170 0
-13 -120 0
-13 -106 0
-12 -122 0
-12 -170 0
-12 -120 0
-12 -106 0
-122 -170 0
-120 -122 0
-106 -122 0
-120 -170 0
-106 -170 0
-106 -120 0
-11 -116 0
-116 -185 0
-116 -191 0
-116 -180 0
-116 -203 0
-11 -185 0
-11 -191 0
-11 -180 0
-11 -203 0
-185 -191 0
-180 -185 0
-185 -203 0
-180 -191 0
-191 -203 0
-180 -203 0
-10 -102 0
-87 -102 0
-102 -215 0
-102 -217 0
-79 -102 0
-10 -87 0
-10 -215 0
-10 -217 0
-10 -79 0
-87 -215 0
-87 -217 0
-79 -87 0
-215 -217 0
-79 -215 0
-79 -217 0
-112 -232 0
-160 -232 0
-232 -241 0
-148 -232 0
-9 -232 0
-112 -160 0
-112 -241 0
-112 -148 0
-9 -112 0
-160 -241 0
-148 -160 0
-9 -160 0
-148 -241 0
-9 -241 0
-9 -148 0
-71 -139 0
-139 -207 0
-62 -139 0
-55 -139 0
-82 -139 0
-71 -207 0
-62 -71 0
-55 -71 0
-71 -82 0
-62 -207 0
-55 -207 0
-82 -207 0
-55 -62 0
-62 -82 0
-55 -82 0
-13 -17 0
-17 -116 0
-17 -102 0
-17 -232 0
-17 -139 0
-13 -116 0
-13 -102 0
-13 -232 0
-13 -139 0
-102 -116 0
-116 -232 0
-116 -139 0
-102 -232 0
-102 -139 0
-139 -232 0
-12 -16 0
-11 -16 0
-10 -16 0
-16 -112 0
-16 -71 0
-11 -12 0
-10 -12 0
-12 -112 0
-12 -71 0
-10 -11 0
-11 -112 0
-11 -71 0
-10 -112 0
-10 -71 0
-71 -112 0
-122 -134 0
-134 -185 0
-87 -134 0
-134 -160 0
-134 -207 0
-122 -185 0
-87 -122 0
-122 -160 0
-122 -207 0
-87 -185 0
-160 -185 0
-185 -207 0
-87 -160 0
-87 -207 0
-160 -207 0
-15 -170 0
-15 -191 0
-15 -215 0
-15 -241 0
-15 -62 0
-170 -191 0
-170 -215 0
-170 -241 0
-62 -170 0
-191 -215 0
-191 -241 0
-62 -191 0
-215 -241 0
-62 -215 0
-62 -241 0
-120 -163 0
-163 -180 0
-163 -217 0
-148 -163 0
-55 -163 0
-120 -180 0
-120 -217 0
-120 -148 0
-55 -120 0
-180 -217 0
-148 -180 0
-55 -180 0
-148 -217 0
-55 -217 0
-55 -148 0
-14 -106 0
-14 -203 0
-14 -79 0
-9 -14 0
-14 -82 0
-106 -203 0
-79 -106 0
-9 -106 0
-82 -106 0
-79 -203 0
-9 -203 0
-82 -203 0
-9 -79 0
-79 -82 0
-9 -82 0
-8 -236 0
-113 -236 0
-8 -113 0
-39 -182 0
-39 -192 0
-182 -192 0
-173 -218 0
-121 -173 0
-121 -218 0
-39 -236 0
-173 -236 0
-39 -173 0
-8 -182 0
-8 -218 0
-182 -218 0
-113 -192 0
-113 -121 0
-121 -192 0
-6 -146 0
-146 -187 0
-146 -174 0
-146 -197 0
-146 -152 0
-6 -187 0
-6 -174 0
-6 -197 0
-6 -152 0
-174 -187 0
-187 -197 0
-152 -187 0
-174 -197 0
-152 -174 0
-152 -197 0
-90 -95 0
-95 -211 0
-81 -95 0
-26 -95 0
-74 -95 0
-90 -211 0
-81 -90 0
-26 -90 0
-74 -90 0
-81 -211 0
-26 -211 0
-74 -211 0
-26 -81 0
-74 -81 0
-26 -74 0
-5 -137 0
-137 -238 0
-123 -137 0
-22 -137 0
-137 -194 0
-5 -238 0
-5 -123 0
-5 -22 0
-5 -194 0
-123 -238 0
-22 -238 0
-194 -238 0
-22 -123 0
-123 -194 0
-22 -194 0
-4 -150 0
-4 -193 0
-4 -143 0
-3 -4 0
-2 -4 0
-150 -193 0
-143 -150 0
-3 -150 0
-2 -150 0
-143 -193 0
-3 -193 0
-2 -193 0
-3 -143 0
-2 -143 0
-2 -3 0
-158 -230 0
-230 -237 0
-186 -230 0
-7 -230 0
-1 -230 0
-158 -237 0
-158 -186 0
-7 -158 0
-1 -158 0
-186 -237 0
-7 -237 0
-1 -237 0
-7 -186 0
-1 -186 0
-1 -7 0
-70 -72 0
-66 -72 0
-60 -72 0
-59 -72 0
-53 -72 0
-66 -70 0
-60 -70 0
-59 -70 0
-53 -70 0
-60 -66 0
-59 -66 0
-53 -66 0
-59 -60 0
-53 -60 0
-53 -59 0
-95 -146 0
-137 -146 0
-4 -146 0
-146 -230 0
-72 -146 0
-95 -137 0
-4 -95 0
-95 -230 0
-72 -95 0
-4 -137 0
-137 -230 0
-72 -137 0
-4 -230 0
-4 -72 0
-72 -230 0
-6 -90 0
-5 -6 0
-6 -150 0
-6 -158 0
-6 -70 0
-5 -90 0
-90 -150 0
-90 -158 0
-70 -90 0
-5 -150 0
-5 -158 0
-5 -70 0
-150 -158 0
-70 -150 0
-70 -158 0
-187 -211 0
-187 -238 0
-187 -193 0
-187 -237 0
-66 -187 0
-211 -238 0
-193 -211 0
-211 -237 0
-66 -211 0
-193 -238 0
-237 -238 0
-66 -238 0
-193 -237 0
-66 -193 0
-66 -237 0
-81 -174 0
-123 -174 0
-143 -174 0
-174 -186 0
-60 -174 0
-81 -123 0
-81 -143 0
-81 -186 0
-60 -81 0
-123 -143 0
-123 -186 0
-60 -123 0
-143 -186 0
-60 -143 0
-60 -186 0
-26 -197 0
-22 -197 0
-3 -197 0
-7 -197 0
-59 -197 0
-22 -26 0
-3 -26 0
-7 -26 0
-26 -59 0
-3 -22 0
-7 -22 0
-22 -59 0
-3 -7 0
-3 -59 0
-7 -59 0
-74 -152 0
-152 -194 0
-2 -152 0
-1 -152 0
-53 -152 0
-74 -194 0
-2 -74 0
-1 -74 0
-53 -74 0
-2 -194 0
-1 -194 0
-53 -194 0
-1 -2 0
-2 -53 0
-1 -53 0
